\ SCIP STATISTICS
\   Problem name     : SetCover-100-200
\   Variables        : 200 (200 binary, 0 integer, 0 implicit integer, 0 continuous)
\   Constraints      : 100
Minimize
 Obj: +39 x0 +71 x1 +80 x2 +86 x3 +79 x4 +10 x5 +74 x6 +44 x7 +52 x8 +20 x9 +11 x10 +4 x11 +5 x12 +13 x13
      +32 x14 +49 x15 +68 x16 +88 x17 +44 x18 +70 x19 +60 x20 +17 x21 +21 x22 +5 x23 +42 x24 +23 x25 +53 x26
      +93 x27 +62 x28 +63 x29 +95 x30 +35 x31 +57 x32 +59 x33 +53 x34 +29 x35 +93 x36 +44 x37 +68 x38
      +60 x39 +97 x40 +35 x41 +37 x42 +67 x43 +24 x44 +42 x45 +14 x46 +79 x47 +48 x48 +65 x49 +58 x50
      +75 x51 +59 x52 +11 x53 +8 x54 +95 x55 +58 x56 +18 x57 +7 x58 +42 x59 +1 x60 +79 x61 +42 x62 +5 x63
      +68 x64 +67 x65 +8 x66 +34 x67 +58 x68 +18 x69 +76 x70 +61 x71 +40 x72 +5 x73 +22 x74 +93 x75 +31 x76
      +55 x77 +35 x78 +40 x79 +12 x80 +81 x81 +16 x82 +21 x83 +11 x84 +9 x85 +77 x86 +1 x87 +69 x88 +90 x89
      +66 x90 +32 x91 +76 x92 +32 x93 +51 x94 +55 x95 +88 x96 +85 x97 +76 x98 +4 x99 +76 x100 +35 x101
      +51 x102 +75 x103 +100 x104 +73 x105 +23 x106 +64 x107 +89 x108 +10 x109 +14 x110 +8 x111 +5 x112
      +54 x113 +66 x114 +80 x115 +43 x116 +79 x117 +15 x118 +39 x119 +15 x120 +78 x121 +15 x122 +55 x123
      +59 x124 +40 x125 +59 x126 +11 x127 +99 x128 +53 x129 +90 x130 +56 x131 +86 x132 +23 x133 +33 x134
      +90 x135 +19 x136 +7 x137 +24 x138 +33 x139 +18 x140 +41 x141 +32 x142 +25 x143 +6 x144 +96 x145
      +77 x146 +39 x147 +10 x148 +40 x149 +88 x150 +16 x151 +17 x152 +29 x153 +100 x154 +52 x155 +52 x156
      +54 x157 +25 x158 +31 x159 +41 x160 +54 x161 +92 x162 +68 x163 +14 x164 +97 x165 +77 x166 +47 x167
      +44 x168 +57 x169 +39 x170 +66 x171 +46 x172 +46 x173 +22 x174 +45 x175 +93 x176 +69 x177 +82 x178
      +71 x179 +38 x180 +14 x181 +5 x182 +66 x183 +19 x184 +37 x185 +19 x186 +98 x187 +57 x188 +39 x189
      +93 x190 +92 x191 +61 x192 +75 x193 +22 x194 +23 x195 +88 x196 +3 x197 +22 x198 +87 x199
Subject to
 c0: +1 x3 +1 x13 +1 x21 +1 x30 +1 x33 +1 x35 +1 x38 +1 x41 +1 x45 +1 x49 +1 x74 +1 x76 +1 x77 +1 x78
  +1 x80 +1 x93 +1 x121 +1 x126 +1 x158 +1 x162 +1 x188 +1 x196 >= +1
 c1: +1 x6 +1 x9 +1 x12 +1 x18 +1 x21 +1 x31 +1 x33 +1 x42 +1 x62 +1 x78 +1 x82 +1 x88 +1 x98 +1 x104
  +1 x122 +1 x127 +1 x129 +1 x131 +1 x132 +1 x133 +1 x135 +1 x142 +1 x144 +1 x149 +1 x150 +1 x151 +1 x155
  +1 x173 +1 x178 +1 x183 +1 x185 +1 x188 >= +1
 c2: +1 x4 +1 x27 +1 x35 +1 x36 +1 x37 +1 x45 +1 x56 +1 x57 +1 x62 +1 x73 +1 x78 +1 x84 +1 x89 +1 x90
  +1 x93 +1 x102 +1 x110 +1 x120 +1 x122 +1 x124 +1 x129 +1 x136 +1 x148 +1 x163 +1 x175 +1 x177 +1 x179
  +1 x192 +1 x199 >= +1
 c3: +1 x3 +1 x8 +1 x14 +1 x15 +1 x16 +1 x20 +1 x21 +1 x24 +1 x27 +1 x28 +1 x30 +1 x32 +1 x41 +1 x42 +1 x57
  +1 x72 +1 x74 +1 x75 +1 x79 +1 x91 +1 x93 +1 x106 +1 x131 +1 x141 +1 x142 +1 x156 +1 x159 +1 x163 +1 x164
  +1 x170 +1 x184 +1 x186 +1 x195 >= +1
 c4: +1 x1 +1 x9 +1 x14 +1 x15 +1 x25 +1 x30 +1 x52 +1 x69 +1 x79 +1 x81 +1 x91 +1 x116 +1 x144 +1 x149
  +1 x161 +1 x165 +1 x170 +1 x177 +1 x199 >= +1
 c5: +1 x3 +1 x17 +1 x25 +1 x41 +1 x42 +1 x49 +1 x53 +1 x62 +1 x64 +1 x76 +1 x81 +1 x95 +1 x102 +1 x108
  +1 x111 +1 x119 +1 x121 +1 x129 +1 x174 +1 x198 >= +1
 c6: +1 x6 +1 x12 +1 x20 +1 x38 +1 x40 +1 x45 +1 x58 +1 x73 +1 x77 +1 x78 +1 x80 +1 x83 +1 x93 +1 x96
  +1 x97 +1 x99 +1 x106 +1 x117 +1 x118 +1 x119 +1 x120 +1 x138 +1 x144 +1 x159 +1 x163 +1 x168 >= +1
 c7: +1 x5 +1 x7 +1 x9 +1 x21 +1 x26 +1 x39 +1 x41 +1 x44 +1 x51 +1 x53 +1 x61 +1 x64 +1 x65 +1 x66 +1 x67
  +1 x70 +1 x75 +1 x76 +1 x85 +1 x100 +1 x101 +1 x108 +1 x112 +1 x119 +1 x126 +1 x129 +1 x137 +1 x140
  +1 x141 +1 x144 +1 x148 +1 x149 +1 x161 +1 x163 +1 x164 +1 x169 +1 x192 +1 x196 +1 x197 >= +1
 c8: +1 x4 +1 x9 +1 x10 +1 x25 +1 x26 +1 x35 +1 x36 +1 x43 +1 x52 +1 x62 +1 x74 +1 x84 +1 x98 +1 x121
  +1 x125 +1 x130 +1 x134 +1 x143 +1 x155 +1 x163 +1 x166 +1 x188 >= +1
 c9: +1 x3 +1 x13 +1 x15 +1 x18 +1 x24 +1 x33 +1 x42 +1 x43 +1 x66 +1 x73 +1 x76 +1 x80 +1 x81 +1 x84
  +1 x89 +1 x105 +1 x109 +1 x130 +1 x136 +1 x141 +1 x156 +1 x169 +1 x173 +1 x177 +1 x187 +1 x196 +1 x197
  +1 x198 >= +1
 c10: +1 x5 +1 x12 +1 x13 +1 x16 +1 x17 +1 x19 +1 x27 +1 x49 +1 x60 +1 x61 +1 x74 +1 x87 +1 x94 +1 x98
  +1 x113 +1 x124 +1 x133 +1 x145 +1 x150 +1 x156 +1 x157 +1 x158 +1 x164 +1 x169 +1 x173 +1 x195 +1 x196
  +1 x199 >= +1
 c11: +1 x0 +1 x12 +1 x14 +1 x17 +1 x21 +1 x25 +1 x42 +1 x49 +1 x59 +1 x74 +1 x79 +1 x82 +1 x94 +1 x98
  +1 x102 +1 x107 +1 x116 +1 x117 +1 x118 +1 x119 +1 x122 +1 x123 +1 x125 +1 x128 +1 x130 +1 x132 +1 x140
  +1 x143 +1 x146 +1 x149 +1 x150 +1 x154 +1 x165 +1 x179 +1 x182 +1 x190 +1 x195 >= +1
 c12: +1 x6 +1 x23 +1 x30 +1 x34 +1 x44 +1 x45 +1 x51 +1 x59 +1 x68 +1 x76 +1 x88 +1 x97 +1 x104 +1 x109
  +1 x113 +1 x114 +1 x119 +1 x124 +1 x130 +1 x132 +1 x136 +1 x141 +1 x143 +1 x150 +1 x153 +1 x161 +1 x163
  +1 x177 +1 x182 +1 x188 +1 x193 +1 x195 >= +1
 c13: +1 x5 +1 x7 +1 x24 +1 x29 +1 x62 +1 x70 +1 x75 +1 x81 +1 x82 +1 x93 +1 x102 +1 x105 +1 x112 +1 x117
  +1 x122 +1 x126 +1 x131 +1 x132 +1 x133 +1 x134 +1 x136 +1 x141 +1 x152 +1 x167 +1 x168 +1 x177 >= +1
 c14: +1 x2 +1 x28 +1 x39 +1 x42 +1 x50 +1 x62 +1 x63 +1 x65 +1 x81 +1 x98 +1 x114 +1 x120 +1 x124 +1 x127
  +1 x133 +1 x139 +1 x141 +1 x142 +1 x143 +1 x149 +1 x151 +1 x157 +1 x162 +1 x175 +1 x176 +1 x179 +1 x185
  +1 x186 +1 x187 +1 x190 +1 x198 >= +1
 c15: +1 x2 +1 x8 +1 x17 +1 x22 +1 x25 +1 x34 +1 x38 +1 x40 +1 x41 +1 x48 +1 x49 +1 x56 +1 x57 +1 x60
  +1 x65 +1 x79 +1 x83 +1 x92 +1 x106 +1 x120 +1 x125 +1 x129 +1 x131 +1 x132 +1 x133 +1 x139 +1 x149
  +1 x154 +1 x157 +1 x167 +1 x189 +1 x194 >= +1
 c16: +1 x5 +1 x19 +1 x23 +1 x38 +1 x52 +1 x59 +1 x64 +1 x74 +1 x89 +1 x90 +1 x92 +1 x100 +1 x101 +1 x105
  +1 x108 +1 x113 +1 x119 +1 x127 +1 x128 +1 x141 +1 x146 +1 x150 +1 x153 +1 x157 +1 x160 +1 x168 +1 x180
  +1 x187 +1 x188 +1 x193 +1 x198 >= +1
 c17: +1 x0 +1 x10 +1 x12 +1 x42 +1 x43 +1 x55 +1 x58 +1 x69 +1 x84 +1 x88 +1 x93 +1 x103 +1 x104 +1 x108
  +1 x126 +1 x130 +1 x133 +1 x135 +1 x145 +1 x150 +1 x158 +1 x167 +1 x193 +1 x196 >= +1
 c18: +1 x4 +1 x6 +1 x14 +1 x15 +1 x21 +1 x27 +1 x30 +1 x34 +1 x36 +1 x37 +1 x40 +1 x49 +1 x51 +1 x63
  +1 x65 +1 x66 +1 x76 +1 x80 +1 x85 +1 x87 +1 x100 +1 x105 +1 x109 +1 x128 +1 x131 +1 x138 +1 x152 +1 x163
  +1 x167 +1 x180 +1 x189 +1 x193 +1 x199 >= +1
 c19: +1 x4 +1 x11 +1 x12 +1 x16 +1 x20 +1 x27 +1 x31 +1 x38 +1 x46 +1 x57 +1 x63 +1 x65 +1 x74 +1 x81
  +1 x86 +1 x87 +1 x99 +1 x118 +1 x119 +1 x121 +1 x135 +1 x142 +1 x146 +1 x157 +1 x158 +1 x164 +1 x169
  +1 x177 +1 x181 +1 x185 +1 x187 +1 x191 +1 x196 >= +1
 c20: +1 x6 +1 x9 +1 x13 +1 x14 +1 x15 +1 x22 +1 x28 +1 x31 +1 x32 +1 x36 +1 x40 +1 x57 +1 x58 +1 x67
  +1 x68 +1 x76 +1 x77 +1 x79 +1 x83 +1 x88 +1 x89 +1 x102 +1 x103 +1 x110 +1 x112 +1 x117 +1 x119 +1 x128
  +1 x130 +1 x131 +1 x132 +1 x133 +1 x138 +1 x143 +1 x158 +1 x187 +1 x190 +1 x193 +1 x198 >= +1
 c21: +1 x6 +1 x17 +1 x25 +1 x51 +1 x67 +1 x69 +1 x87 +1 x90 +1 x95 +1 x96 +1 x97 +1 x98 +1 x99 +1 x100
  +1 x103 +1 x113 +1 x122 +1 x132 +1 x133 +1 x147 +1 x157 +1 x160 +1 x164 +1 x178 +1 x190 +1 x191 +1 x196
  >= +1
 c22: +1 x1 +1 x20 +1 x46 +1 x47 +1 x56 +1 x58 +1 x66 +1 x68 +1 x79 +1 x82 +1 x92 +1 x109 +1 x112 +1 x115
  +1 x117 +1 x122 +1 x135 +1 x143 +1 x145 +1 x153 +1 x154 +1 x157 +1 x176 +1 x187 +1 x193 +1 x194 +1 x195
  +1 x197 >= +1
 c23: +1 x1 +1 x9 +1 x30 +1 x33 +1 x38 +1 x54 +1 x56 +1 x69 +1 x70 +1 x72 +1 x73 +1 x78 +1 x88 +1 x91
  +1 x103 +1 x106 +1 x109 +1 x110 +1 x113 +1 x123 +1 x124 +1 x126 +1 x129 +1 x138 +1 x139 +1 x140 +1 x146
  +1 x152 +1 x155 +1 x165 +1 x166 +1 x168 +1 x172 +1 x177 +1 x187 +1 x189 +1 x198 >= +1
 c24: +1 x5 +1 x14 +1 x27 +1 x46 +1 x48 +1 x49 +1 x55 +1 x70 +1 x73 +1 x84 +1 x88 +1 x95 +1 x100 +1 x108
  +1 x114 +1 x116 +1 x138 +1 x148 +1 x149 +1 x153 +1 x167 +1 x181 >= +1
 c25: +1 x3 +1 x13 +1 x25 +1 x36 +1 x51 +1 x53 +1 x58 +1 x83 +1 x89 +1 x93 +1 x94 +1 x101 +1 x112 +1 x116
  +1 x118 +1 x120 +1 x145 +1 x155 +1 x162 +1 x167 +1 x173 +1 x176 +1 x177 +1 x187 +1 x191 +1 x194 >= +1
 c26: +1 x3 +1 x9 +1 x11 +1 x12 +1 x13 +1 x14 +1 x15 +1 x23 +1 x24 +1 x65 +1 x70 +1 x75 +1 x89 +1 x93
  +1 x95 +1 x102 +1 x114 +1 x120 +1 x130 +1 x131 +1 x137 +1 x149 +1 x162 +1 x166 >= +1
 c27: +1 x5 +1 x9 +1 x12 +1 x14 +1 x26 +1 x31 +1 x34 +1 x48 +1 x53 +1 x59 +1 x90 +1 x103 +1 x106 +1 x123
  +1 x135 +1 x140 +1 x145 +1 x156 +1 x159 +1 x164 +1 x169 +1 x170 +1 x175 +1 x199 >= +1
 c28: +1 x2 +1 x19 +1 x30 +1 x33 +1 x34 +1 x35 +1 x47 +1 x51 +1 x53 +1 x67 +1 x69 +1 x75 +1 x77 +1 x85
  +1 x88 +1 x113 +1 x119 +1 x125 +1 x128 +1 x140 +1 x153 +1 x162 +1 x170 +1 x174 +1 x184 +1 x186 +1 x188
  +1 x195 +1 x196 >= +1
 c29: +1 x3 +1 x17 +1 x23 +1 x31 +1 x32 +1 x36 +1 x41 +1 x49 +1 x57 +1 x61 +1 x64 +1 x70 +1 x71 +1 x81
  +1 x85 +1 x94 +1 x98 +1 x100 +1 x106 +1 x107 +1 x109 +1 x111 +1 x121 +1 x138 +1 x139 +1 x141 +1 x147
  +1 x150 +1 x160 +1 x164 +1 x168 +1 x171 +1 x173 +1 x178 +1 x184 +1 x186 +1 x194 >= +1
 c30: +1 x2 +1 x12 +1 x15 +1 x16 +1 x24 +1 x29 +1 x34 +1 x35 +1 x41 +1 x51 +1 x56 +1 x58 +1 x59 +1 x67
  +1 x68 +1 x77 +1 x78 +1 x79 +1 x80 +1 x92 +1 x93 +1 x95 +1 x110 +1 x132 +1 x134 +1 x136 +1 x140 +1 x148
  +1 x152 +1 x161 +1 x164 +1 x172 +1 x176 +1 x189 >= +1
 c31: +1 x5 +1 x9 +1 x19 +1 x20 +1 x25 +1 x29 +1 x32 +1 x38 +1 x46 +1 x49 +1 x50 +1 x52 +1 x62 +1 x64
  +1 x65 +1 x68 +1 x70 +1 x82 +1 x86 +1 x92 +1 x101 +1 x108 +1 x113 +1 x119 +1 x124 +1 x139 +1 x141 +1 x150
  +1 x161 +1 x175 +1 x185 +1 x194 +1 x196 >= +1
 c32: +1 x5 +1 x10 +1 x25 +1 x28 +1 x41 +1 x49 +1 x53 +1 x55 +1 x57 +1 x72 +1 x106 +1 x107 +1 x111 +1 x122
  +1 x125 +1 x134 +1 x138 +1 x139 +1 x154 +1 x156 +1 x157 +1 x167 +1 x178 +1 x180 +1 x183 +1 x185 >= +1
 c33: +1 x0 +1 x16 +1 x19 +1 x20 +1 x37 +1 x50 +1 x51 +1 x54 +1 x57 +1 x62 +1 x64 +1 x66 +1 x71 +1 x75
  +1 x85 +1 x88 +1 x94 +1 x98 +1 x102 +1 x106 +1 x135 +1 x150 +1 x152 +1 x154 +1 x174 +1 x177 +1 x180
  +1 x185 +1 x190 +1 x194 +1 x197 >= +1
 c34: +1 x1 +1 x13 +1 x14 +1 x46 +1 x51 +1 x53 +1 x70 +1 x93 +1 x97 +1 x98 +1 x101 +1 x103 +1 x106 +1 x107
  +1 x109 +1 x110 +1 x111 +1 x126 +1 x135 +1 x140 +1 x143 +1 x149 +1 x156 +1 x167 +1 x168 +1 x169 +1 x174
  +1 x178 +1 x184 +1 x187 +1 x190 +1 x199 >= +1
 c35: +1 x6 +1 x13 +1 x15 +1 x16 +1 x20 +1 x22 +1 x58 +1 x66 +1 x81 +1 x84 +1 x85 +1 x111 +1 x125 +1 x126
  +1 x127 +1 x130 +1 x132 +1 x151 +1 x163 +1 x175 +1 x184 +1 x187 +1 x193 >= +1
 c36: +1 x2 +1 x12 +1 x14 +1 x17 +1 x22 +1 x26 +1 x30 +1 x31 +1 x35 +1 x51 +1 x70 +1 x76 +1 x78 +1 x91
  +1 x93 +1 x102 +1 x114 +1 x120 +1 x128 +1 x136 +1 x140 +1 x141 +1 x154 +1 x155 +1 x159 +1 x173 +1 x187
  +1 x192 +1 x195 >= +1
 c37: +1 x1 +1 x6 +1 x8 +1 x9 +1 x14 +1 x22 +1 x23 +1 x25 +1 x34 +1 x38 +1 x45 +1 x49 +1 x51 +1 x60 +1 x68
  +1 x69 +1 x71 +1 x73 +1 x87 +1 x99 +1 x107 +1 x115 +1 x118 +1 x126 +1 x129 +1 x130 +1 x134 +1 x136 +1 x148
  +1 x156 +1 x168 +1 x170 +1 x172 +1 x176 +1 x181 +1 x183 +1 x184 +1 x185 +1 x195 +1 x198 >= +1
 c38: +1 x1 +1 x7 +1 x18 +1 x20 +1 x36 +1 x43 +1 x49 +1 x52 +1 x64 +1 x67 +1 x70 +1 x75 +1 x83 +1 x87
  +1 x95 +1 x96 +1 x98 +1 x99 +1 x109 +1 x115 +1 x132 +1 x141 +1 x142 +1 x159 +1 x169 +1 x181 +1 x188
  +1 x191 >= +1
 c39: +1 x0 +1 x8 +1 x15 +1 x22 +1 x26 +1 x29 +1 x34 +1 x56 +1 x59 +1 x64 +1 x73 +1 x75 +1 x84 +1 x86
  +1 x89 +1 x97 +1 x100 +1 x121 +1 x128 +1 x132 +1 x137 +1 x149 +1 x155 +1 x157 +1 x175 +1 x181 >= +1
 c40: +1 x4 +1 x8 +1 x11 +1 x48 +1 x50 +1 x65 +1 x80 +1 x82 +1 x85 +1 x101 +1 x105 +1 x114 +1 x117 +1 x122
  +1 x127 +1 x130 +1 x145 +1 x151 +1 x154 +1 x171 +1 x173 +1 x174 +1 x185 +1 x189 +1 x192 +1 x197 >= +1
 c41: +1 x1 +1 x9 +1 x10 +1 x11 +1 x13 +1 x22 +1 x30 +1 x34 +1 x36 +1 x43 +1 x56 +1 x58 +1 x61 +1 x62
  +1 x63 +1 x65 +1 x69 +1 x70 +1 x87 +1 x90 +1 x108 +1 x111 +1 x112 +1 x123 +1 x137 +1 x138 +1 x143 +1 x150
  +1 x164 +1 x166 +1 x173 +1 x187 +1 x190 >= +1
 c42: +1 x6 +1 x25 +1 x41 +1 x49 +1 x72 +1 x73 +1 x78 +1 x84 +1 x85 +1 x91 +1 x93 +1 x101 +1 x103 +1 x109
  +1 x116 +1 x117 +1 x121 +1 x122 +1 x138 +1 x141 +1 x149 +1 x153 +1 x158 +1 x160 +1 x163 +1 x167 +1 x173
  +1 x174 +1 x179 +1 x188 +1 x189 +1 x193 >= +1
 c43: +1 x1 +1 x7 +1 x8 +1 x15 +1 x19 +1 x21 +1 x30 +1 x39 +1 x47 +1 x56 +1 x64 +1 x74 +1 x88 +1 x94 +1 x104
  +1 x106 +1 x107 +1 x121 +1 x128 +1 x132 +1 x140 +1 x146 +1 x158 +1 x161 +1 x164 +1 x167 +1 x172 +1 x173
  +1 x179 +1 x186 +1 x189 +1 x193 +1 x195 >= +1
 c44: +1 x4 +1 x12 +1 x22 +1 x25 +1 x26 +1 x31 +1 x33 +1 x63 +1 x65 +1 x69 +1 x84 +1 x86 +1 x94 +1 x103
  +1 x105 +1 x106 +1 x107 +1 x108 +1 x111 +1 x117 +1 x128 +1 x132 +1 x137 +1 x139 +1 x153 +1 x162 +1 x167
  +1 x168 +1 x173 +1 x174 +1 x175 +1 x177 +1 x182 +1 x187 +1 x189 >= +1
 c45: +1 x0 +1 x15 +1 x16 +1 x32 +1 x34 +1 x35 +1 x41 +1 x43 +1 x56 +1 x67 +1 x73 +1 x80 +1 x81 +1 x95
  +1 x101 +1 x103 +1 x112 +1 x117 +1 x118 +1 x119 +1 x121 +1 x127 +1 x128 +1 x136 +1 x141 +1 x144 +1 x150
  +1 x155 +1 x166 +1 x169 +1 x178 +1 x185 +1 x189 +1 x199 >= +1
 c46: +1 x2 +1 x8 +1 x9 +1 x14 +1 x17 +1 x21 +1 x24 +1 x35 +1 x60 +1 x61 +1 x83 +1 x87 +1 x89 +1 x92 +1 x93
  +1 x99 +1 x100 +1 x106 +1 x111 +1 x115 +1 x116 +1 x118 +1 x132 +1 x141 +1 x149 +1 x152 +1 x154 +1 x155
  +1 x169 +1 x170 +1 x186 +1 x187 >= +1
 c47: +1 x2 +1 x13 +1 x23 +1 x39 +1 x50 +1 x51 +1 x52 +1 x57 +1 x59 +1 x61 +1 x64 +1 x68 +1 x71 +1 x73
  +1 x79 +1 x83 +1 x84 +1 x87 +1 x96 +1 x106 +1 x126 +1 x137 +1 x143 +1 x144 +1 x145 +1 x161 +1 x163 +1 x179
  +1 x188 +1 x191 +1 x192 +1 x197 >= +1
 c48: +1 x4 +1 x6 +1 x11 +1 x13 +1 x26 +1 x31 +1 x44 +1 x50 +1 x54 +1 x72 +1 x87 +1 x90 +1 x98 +1 x99
  +1 x116 +1 x126 +1 x131 +1 x144 +1 x154 +1 x156 +1 x167 +1 x176 +1 x179 +1 x186 +1 x189 +1 x190 +1 x196
  +1 x197 +1 x198 >= +1
 c49: +1 x4 +1 x20 +1 x21 +1 x23 +1 x33 +1 x36 +1 x45 +1 x54 +1 x74 +1 x77 +1 x81 +1 x88 +1 x93 +1 x97
  +1 x102 +1 x103 +1 x105 +1 x108 +1 x111 +1 x115 +1 x116 +1 x117 +1 x119 +1 x123 +1 x135 +1 x139 +1 x168
  +1 x170 +1 x171 +1 x176 +1 x183 +1 x190 +1 x194 +1 x199 >= +1
 c50: +1 x4 +1 x8 +1 x12 +1 x17 +1 x24 +1 x41 +1 x60 +1 x63 +1 x64 +1 x71 +1 x79 +1 x82 +1 x85 +1 x88
  +1 x99 +1 x114 +1 x122 +1 x123 +1 x124 +1 x137 +1 x139 +1 x145 +1 x152 +1 x172 +1 x173 +1 x177 +1 x182
  +1 x184 +1 x193 +1 x195 >= +1
 c51: +1 x1 +1 x14 +1 x22 +1 x31 +1 x36 +1 x38 +1 x49 +1 x56 +1 x61 +1 x64 +1 x69 +1 x75 +1 x88 +1 x91
  +1 x101 +1 x103 +1 x105 +1 x109 +1 x121 +1 x123 +1 x125 +1 x130 +1 x133 +1 x139 +1 x142 +1 x146 +1 x149
  +1 x151 +1 x165 +1 x167 +1 x172 +1 x174 +1 x177 +1 x181 +1 x192 +1 x198 >= +1
 c52: +1 x0 +1 x18 +1 x26 +1 x28 +1 x42 +1 x46 +1 x51 +1 x56 +1 x62 +1 x69 +1 x74 +1 x75 +1 x77 +1 x83
  +1 x97 +1 x100 +1 x103 +1 x105 +1 x113 +1 x118 +1 x119 +1 x122 +1 x124 +1 x129 +1 x140 +1 x157 +1 x162
  +1 x171 +1 x172 +1 x173 +1 x181 +1 x183 +1 x186 +1 x193 +1 x194 >= +1
 c53: +1 x0 +1 x7 +1 x16 +1 x22 +1 x29 +1 x31 +1 x43 +1 x50 +1 x57 +1 x60 +1 x66 +1 x82 +1 x103 +1 x113
  +1 x116 +1 x122 +1 x124 +1 x138 +1 x140 +1 x146 +1 x161 +1 x163 +1 x165 +1 x166 +1 x167 +1 x180 +1 x183
  +1 x192 +1 x195 >= +1
 c54: +1 x3 +1 x9 +1 x17 +1 x19 +1 x34 +1 x35 +1 x56 +1 x59 +1 x63 +1 x67 +1 x71 +1 x81 +1 x82 +1 x86
  +1 x88 +1 x92 +1 x107 +1 x116 +1 x124 +1 x135 +1 x144 +1 x145 +1 x169 +1 x182 +1 x183 +1 x184 +1 x199
  >= +1
 c55: +1 x1 +1 x9 +1 x10 +1 x28 +1 x30 +1 x56 +1 x62 +1 x65 +1 x66 +1 x70 +1 x73 +1 x79 +1 x83 +1 x88
  +1 x89 +1 x97 +1 x107 +1 x115 +1 x117 +1 x120 +1 x130 +1 x136 +1 x137 +1 x140 +1 x142 +1 x150 +1 x155
  +1 x156 +1 x176 +1 x196 >= +1
 c56: +1 x0 +1 x27 +1 x34 +1 x49 +1 x50 +1 x54 +1 x63 +1 x66 +1 x73 +1 x85 +1 x87 +1 x90 +1 x102 +1 x118
  +1 x121 +1 x134 +1 x160 +1 x188 >= +1
 c57: +1 x2 +1 x8 +1 x10 +1 x17 +1 x24 +1 x29 +1 x59 +1 x66 +1 x81 +1 x82 +1 x95 +1 x105 +1 x118 +1 x124
  +1 x138 +1 x141 +1 x147 +1 x154 +1 x155 +1 x157 +1 x164 +1 x166 +1 x183 +1 x184 +1 x188 +1 x195 >= +1
 c58: +1 x5 +1 x15 +1 x16 +1 x20 +1 x26 +1 x35 +1 x38 +1 x42 +1 x51 +1 x53 +1 x57 +1 x64 +1 x70 +1 x72
  +1 x78 +1 x85 +1 x90 +1 x94 +1 x100 +1 x113 +1 x120 +1 x129 +1 x139 +1 x143 +1 x147 +1 x149 +1 x151
  +1 x152 +1 x154 +1 x157 +1 x165 +1 x170 +1 x182 +1 x187 >= +1
 c59: +1 x1 +1 x20 +1 x23 +1 x39 +1 x56 +1 x59 +1 x61 +1 x64 +1 x71 +1 x72 +1 x74 +1 x78 +1 x79 +1 x95
  +1 x108 +1 x109 +1 x113 +1 x124 +1 x126 +1 x132 +1 x134 +1 x153 +1 x159 +1 x169 +1 x172 +1 x177 +1 x178
  +1 x181 +1 x185 +1 x187 +1 x192 +1 x193 >= +1
 c60: +1 x5 +1 x9 +1 x10 +1 x11 +1 x12 +1 x13 +1 x23 +1 x27 +1 x39 +1 x45 +1 x46 +1 x57 +1 x60 +1 x61
  +1 x62 +1 x68 +1 x72 +1 x77 +1 x80 +1 x84 +1 x85 +1 x91 +1 x99 +1 x101 +1 x103 +1 x106 +1 x107 +1 x113
  +1 x116 +1 x118 +1 x122 +1 x132 +1 x138 +1 x142 +1 x145 +1 x146 +1 x147 +1 x155 +1 x157 +1 x183 +1 x198
  >= +1
 c61: +1 x5 +1 x9 +1 x14 +1 x17 +1 x31 +1 x32 +1 x36 +1 x61 +1 x78 +1 x82 +1 x105 +1 x109 +1 x110 +1 x117
  +1 x128 +1 x146 +1 x148 +1 x154 +1 x156 +1 x169 +1 x170 +1 x180 +1 x189 +1 x199 >= +1
 c62: +1 x0 +1 x15 +1 x20 +1 x22 +1 x26 +1 x30 +1 x41 +1 x43 +1 x48 +1 x49 +1 x53 +1 x56 +1 x62 +1 x63
  +1 x64 +1 x65 +1 x66 +1 x71 +1 x75 +1 x86 +1 x88 +1 x91 +1 x92 +1 x103 +1 x113 +1 x116 +1 x119 +1 x120
  +1 x122 +1 x124 +1 x134 +1 x135 +1 x140 +1 x141 +1 x156 +1 x165 +1 x172 +1 x173 +1 x188 +1 x199 >= +1
 c63: +1 x4 +1 x7 +1 x8 +1 x14 +1 x22 +1 x28 +1 x35 +1 x42 +1 x51 +1 x55 +1 x61 +1 x70 +1 x72 +1 x88 +1 x91
  +1 x99 +1 x110 +1 x115 +1 x119 +1 x121 +1 x124 +1 x126 +1 x129 +1 x182 +1 x192 +1 x193 +1 x199 >= +1
 c64: +1 x4 +1 x9 +1 x23 +1 x32 +1 x34 +1 x38 +1 x39 +1 x42 +1 x44 +1 x46 +1 x56 +1 x70 +1 x73 +1 x86
  +1 x90 +1 x93 +1 x95 +1 x98 +1 x111 +1 x122 +1 x123 +1 x128 +1 x133 +1 x134 +1 x136 +1 x137 +1 x141
  +1 x144 +1 x152 +1 x157 +1 x172 +1 x176 +1 x192 +1 x197 >= +1
 c65: +1 x0 +1 x6 +1 x12 +1 x15 +1 x20 +1 x21 +1 x28 +1 x42 +1 x57 +1 x60 +1 x81 +1 x95 +1 x99 +1 x105
  +1 x108 +1 x109 +1 x122 +1 x125 +1 x129 +1 x148 +1 x152 +1 x154 +1 x162 +1 x171 +1 x177 +1 x181 +1 x184
  +1 x185 +1 x188 +1 x194 +1 x196 >= +1
 c66: +1 x0 +1 x8 +1 x10 +1 x16 +1 x23 +1 x24 +1 x25 +1 x33 +1 x45 +1 x47 +1 x49 +1 x50 +1 x53 +1 x63
  +1 x68 +1 x77 +1 x78 +1 x79 +1 x84 +1 x88 +1 x89 +1 x92 +1 x94 +1 x97 +1 x106 +1 x113 +1 x115 +1 x117
  +1 x119 +1 x120 +1 x124 +1 x129 +1 x131 +1 x137 +1 x142 +1 x144 +1 x147 +1 x154 +1 x160 +1 x162 +1 x169
  +1 x180 +1 x188 +1 x191 +1 x199 >= +1
 c67: +1 x1 +1 x8 +1 x11 +1 x16 +1 x44 +1 x55 +1 x64 +1 x71 +1 x73 +1 x81 +1 x85 +1 x96 +1 x97 +1 x103
  +1 x114 +1 x122 +1 x126 +1 x129 +1 x130 +1 x143 +1 x153 +1 x175 +1 x181 +1 x191 +1 x195 >= +1
 c68: +1 x1 +1 x7 +1 x13 +1 x29 +1 x38 +1 x50 +1 x70 +1 x76 +1 x78 +1 x91 +1 x92 +1 x98 +1 x100 +1 x101
  +1 x105 +1 x126 +1 x130 +1 x165 +1 x177 +1 x179 +1 x193 >= +1
 c69: +1 x3 +1 x33 +1 x37 +1 x40 +1 x47 +1 x52 +1 x66 +1 x80 +1 x98 +1 x101 +1 x105 +1 x114 +1 x116 +1 x118
  +1 x126 +1 x132 +1 x141 +1 x142 +1 x153 +1 x154 +1 x159 +1 x197 >= +1
 c70: +1 x3 +1 x9 +1 x23 +1 x27 +1 x48 +1 x49 +1 x51 +1 x56 +1 x62 +1 x66 +1 x74 +1 x80 +1 x81 +1 x84
  +1 x105 +1 x110 +1 x134 +1 x135 +1 x142 +1 x147 +1 x150 +1 x159 +1 x167 +1 x169 +1 x171 +1 x186 +1 x191
  +1 x196 >= +1
 c71: +1 x3 +1 x7 +1 x16 +1 x17 +1 x27 +1 x44 +1 x74 +1 x76 +1 x79 +1 x84 +1 x87 +1 x97 +1 x99 +1 x109
  +1 x113 +1 x131 +1 x134 +1 x138 +1 x144 +1 x150 +1 x151 +1 x154 +1 x171 +1 x178 +1 x179 +1 x182 +1 x193
  +1 x194 +1 x197 +1 x198 +1 x199 >= +1
 c72: +1 x1 +1 x10 +1 x12 +1 x14 +1 x25 +1 x29 +1 x51 +1 x53 +1 x73 +1 x94 +1 x100 +1 x107 +1 x114 +1 x120
  +1 x121 +1 x132 +1 x137 +1 x142 +1 x158 +1 x174 +1 x178 +1 x184 +1 x187 +1 x196 +1 x198 >= +1
 c73: +1 x0 +1 x9 +1 x10 +1 x16 +1 x18 +1 x24 +1 x28 +1 x29 +1 x30 +1 x40 +1 x50 +1 x53 +1 x63 +1 x64
  +1 x68 +1 x69 +1 x70 +1 x77 +1 x96 +1 x100 +1 x125 +1 x133 +1 x143 +1 x153 +1 x158 +1 x160 +1 x174 +1 x179
  +1 x181 +1 x192 +1 x194 >= +1
 c74: +1 x5 +1 x9 +1 x11 +1 x19 +1 x21 +1 x24 +1 x29 +1 x52 +1 x63 +1 x73 +1 x75 +1 x85 +1 x88 +1 x96
  +1 x107 +1 x123 +1 x126 +1 x142 +1 x148 +1 x158 +1 x160 +1 x176 +1 x182 +1 x184 +1 x195 >= +1
 c75: +1 x1 +1 x14 +1 x25 +1 x29 +1 x30 +1 x45 +1 x74 +1 x89 +1 x101 +1 x108 +1 x114 +1 x129 +1 x132 +1 x150
  +1 x158 +1 x168 +1 x169 +1 x170 +1 x177 +1 x181 +1 x182 +1 x187 +1 x194 +1 x197 >= +1
 c76: +1 x5 +1 x9 +1 x13 +1 x15 +1 x17 +1 x23 +1 x24 +1 x33 +1 x44 +1 x45 +1 x48 +1 x55 +1 x57 +1 x62
  +1 x63 +1 x76 +1 x87 +1 x94 +1 x104 +1 x105 +1 x110 +1 x114 +1 x121 +1 x123 +1 x136 +1 x141 +1 x149
  +1 x164 +1 x172 +1 x175 +1 x185 +1 x187 +1 x189 +1 x192 +1 x194 >= +1
 c77: +1 x6 +1 x9 +1 x10 +1 x14 +1 x27 +1 x36 +1 x37 +1 x44 +1 x45 +1 x53 +1 x58 +1 x68 +1 x72 +1 x85
  +1 x96 +1 x101 +1 x122 +1 x124 +1 x127 +1 x129 +1 x148 +1 x152 +1 x157 +1 x161 +1 x168 +1 x177 +1 x198
  >= +1
 c78: +1 x5 +1 x7 +1 x8 +1 x15 +1 x19 +1 x28 +1 x42 +1 x45 +1 x47 +1 x53 +1 x73 +1 x82 +1 x83 +1 x108
  +1 x110 +1 x114 +1 x116 +1 x117 +1 x122 +1 x141 +1 x142 +1 x148 +1 x149 +1 x156 +1 x159 +1 x160 +1 x163
  +1 x175 +1 x178 +1 x191 +1 x196 +1 x199 >= +1
 c79: +1 x3 +1 x9 +1 x17 +1 x20 +1 x32 +1 x33 +1 x39 +1 x42 +1 x60 +1 x67 +1 x71 +1 x78 +1 x80 +1 x81
  +1 x83 +1 x85 +1 x86 +1 x87 +1 x94 +1 x112 +1 x113 +1 x114 +1 x122 +1 x130 +1 x142 +1 x158 +1 x164 +1 x165
  +1 x170 +1 x172 +1 x173 +1 x179 +1 x190 +1 x193 >= +1
 c80: +1 x4 +1 x7 +1 x11 +1 x13 +1 x15 +1 x16 +1 x19 +1 x25 +1 x38 +1 x41 +1 x42 +1 x46 +1 x52 +1 x53
  +1 x65 +1 x90 +1 x91 +1 x107 +1 x113 +1 x129 +1 x144 +1 x145 +1 x146 +1 x149 +1 x159 +1 x160 +1 x164
  +1 x191 +1 x193 +1 x194 +1 x195 >= +1
 c81: +1 x1 +1 x10 +1 x19 +1 x25 +1 x30 +1 x34 +1 x37 +1 x52 +1 x56 +1 x62 +1 x78 +1 x92 +1 x93 +1 x96
  +1 x105 +1 x112 +1 x114 +1 x115 +1 x118 +1 x124 +1 x125 +1 x128 +1 x129 +1 x132 +1 x137 +1 x145 +1 x148
  +1 x152 +1 x153 +1 x165 +1 x169 +1 x183 +1 x186 +1 x197 >= +1
 c82: +1 x6 +1 x13 +1 x15 +1 x19 +1 x20 +1 x33 +1 x47 +1 x49 +1 x65 +1 x66 +1 x71 +1 x75 +1 x76 +1 x84
  +1 x93 +1 x95 +1 x98 +1 x103 +1 x126 +1 x150 +1 x155 +1 x157 +1 x159 +1 x161 +1 x168 +1 x172 +1 x181
  +1 x190 >= +1
 c83: +1 x0 +1 x9 +1 x11 +1 x14 +1 x17 +1 x21 +1 x23 +1 x28 +1 x29 +1 x30 +1 x33 +1 x42 +1 x46 +1 x51
  +1 x52 +1 x57 +1 x59 +1 x65 +1 x67 +1 x71 +1 x88 +1 x94 +1 x98 +1 x117 +1 x119 +1 x122 +1 x137 +1 x138
  +1 x141 +1 x154 +1 x163 +1 x172 +1 x174 +1 x176 +1 x180 +1 x188 +1 x192 >= +1
 c84: +1 x6 +1 x7 +1 x22 +1 x38 +1 x43 +1 x47 +1 x60 +1 x61 +1 x63 +1 x68 +1 x70 +1 x80 +1 x95 +1 x107
  +1 x118 +1 x132 +1 x147 +1 x152 +1 x156 +1 x161 +1 x168 +1 x176 +1 x183 +1 x195 +1 x196 >= +1
 c85: +1 x5 +1 x11 +1 x17 +1 x18 +1 x28 +1 x41 +1 x48 +1 x52 +1 x70 +1 x73 +1 x79 +1 x89 +1 x92 +1 x93
  +1 x101 +1 x107 +1 x113 +1 x123 +1 x124 +1 x125 +1 x139 +1 x147 +1 x154 +1 x169 +1 x170 +1 x179 +1 x185
  +1 x191 +1 x195 >= +1
 c86: +1 x5 +1 x16 +1 x26 +1 x38 +1 x60 +1 x61 +1 x65 +1 x71 +1 x74 +1 x75 +1 x83 +1 x85 +1 x87 +1 x92
  +1 x95 +1 x96 +1 x98 +1 x108 +1 x113 +1 x126 +1 x128 +1 x134 +1 x135 +1 x137 +1 x151 +1 x159 +1 x164
  +1 x172 +1 x190 +1 x198 >= +1
 c87: +1 x1 +1 x10 +1 x11 +1 x17 +1 x20 +1 x21 +1 x23 +1 x27 +1 x37 +1 x38 +1 x39 +1 x43 +1 x44 +1 x57
  +1 x88 +1 x100 +1 x104 +1 x105 +1 x106 +1 x114 +1 x119 +1 x124 +1 x128 +1 x144 +1 x149 +1 x157 +1 x171
  +1 x173 +1 x174 +1 x184 +1 x196 >= +1
 c88: +1 x4 +1 x12 +1 x14 +1 x15 +1 x34 +1 x46 +1 x47 +1 x72 +1 x78 +1 x79 +1 x95 +1 x96 +1 x97 +1 x111
  +1 x112 +1 x113 +1 x114 +1 x121 +1 x127 +1 x128 +1 x131 +1 x134 +1 x144 +1 x150 +1 x166 +1 x167 +1 x174
  +1 x180 +1 x182 +1 x192 +1 x194 >= +1
 c89: +1 x4 +1 x7 +1 x13 +1 x18 +1 x29 +1 x31 +1 x33 +1 x36 +1 x52 +1 x54 +1 x55 +1 x58 +1 x61 +1 x66
  +1 x67 +1 x80 +1 x84 +1 x96 +1 x104 +1 x119 +1 x135 +1 x136 +1 x141 +1 x142 +1 x149 +1 x158 +1 x165
  +1 x166 +1 x174 +1 x181 +1 x198 >= +1
 c90: +1 x4 +1 x10 +1 x13 +1 x14 +1 x20 +1 x22 +1 x24 +1 x28 +1 x29 +1 x40 +1 x41 +1 x50 +1 x55 +1 x59
  +1 x61 +1 x74 +1 x77 +1 x81 +1 x88 +1 x93 +1 x100 +1 x106 +1 x111 +1 x117 +1 x123 +1 x130 +1 x132 +1 x138
  +1 x144 +1 x147 +1 x148 +1 x155 +1 x179 +1 x186 +1 x188 +1 x189 +1 x195 +1 x198 >= +1
 c91: +1 x2 +1 x15 +1 x22 +1 x25 +1 x32 +1 x36 +1 x42 +1 x68 +1 x82 +1 x86 +1 x90 +1 x95 +1 x112 +1 x113
  +1 x116 +1 x120 +1 x121 +1 x130 +1 x136 +1 x143 +1 x149 +1 x151 +1 x156 +1 x158 +1 x163 +1 x164 +1 x182
  +1 x184 +1 x193 +1 x197 >= +1
 c92: +1 x1 +1 x10 +1 x15 +1 x25 +1 x30 +1 x40 +1 x51 +1 x60 +1 x80 +1 x87 +1 x88 +1 x97 +1 x101 +1 x105
  +1 x111 +1 x117 +1 x120 +1 x122 +1 x133 +1 x136 +1 x179 +1 x189 >= +1
 c93: +1 x4 +1 x7 +1 x9 +1 x23 +1 x27 +1 x28 +1 x55 +1 x61 +1 x77 +1 x81 +1 x91 +1 x95 +1 x96 +1 x99 +1 x122
  +1 x129 +1 x137 +1 x160 +1 x189 +1 x194 +1 x196 +1 x198 >= +1
 c94: +1 x0 +1 x7 +1 x10 +1 x17 +1 x19 +1 x20 +1 x24 +1 x25 +1 x26 +1 x39 +1 x41 +1 x47 +1 x50 +1 x53
  +1 x55 +1 x60 +1 x65 +1 x67 +1 x85 +1 x96 +1 x116 +1 x117 +1 x119 +1 x127 +1 x134 +1 x137 +1 x142 +1 x143
  +1 x145 +1 x149 +1 x151 +1 x158 +1 x167 +1 x168 +1 x176 +1 x182 +1 x183 +1 x191 +1 x196 >= +1
 c95: +1 x3 +1 x9 +1 x13 +1 x19 +1 x24 +1 x27 +1 x30 +1 x42 +1 x44 +1 x70 +1 x72 +1 x79 +1 x83 +1 x90
  +1 x93 +1 x102 +1 x105 +1 x108 +1 x110 +1 x114 +1 x127 +1 x136 +1 x137 +1 x145 +1 x147 +1 x148 +1 x159
  +1 x162 +1 x167 +1 x174 +1 x176 +1 x184 >= +1
 c96: +1 x3 +1 x6 +1 x25 +1 x30 +1 x33 +1 x38 +1 x47 +1 x56 +1 x57 +1 x60 +1 x74 +1 x78 +1 x79 +1 x108
  +1 x110 +1 x118 +1 x120 +1 x135 +1 x149 +1 x153 +1 x157 +1 x160 +1 x163 +1 x180 +1 x184 >= +1
 c97: +1 x0 +1 x10 +1 x12 +1 x23 +1 x30 +1 x43 +1 x44 +1 x59 +1 x63 +1 x74 +1 x82 +1 x93 +1 x100 +1 x113
  +1 x127 +1 x132 +1 x140 +1 x141 +1 x143 +1 x148 +1 x157 +1 x163 +1 x164 +1 x165 +1 x170 +1 x173 +1 x180
  +1 x182 +1 x193 +1 x194 +1 x195 +1 x196 +1 x198 >= +1
 c98: +1 x4 +1 x45 +1 x47 +1 x53 +1 x58 +1 x66 +1 x67 +1 x68 +1 x93 +1 x105 +1 x107 +1 x108 +1 x112 +1 x119
  +1 x121 +1 x132 +1 x148 +1 x149 +1 x150 +1 x156 +1 x164 +1 x167 +1 x179 +1 x181 +1 x187 +1 x190 +1 x191
  +1 x193 +1 x196 >= +1
 c99: +1 x0 +1 x11 +1 x13 +1 x22 +1 x26 +1 x34 +1 x35 +1 x40 +1 x41 +1 x53 +1 x57 +1 x59 +1 x64 +1 x67
  +1 x87 +1 x88 +1 x89 +1 x95 +1 x113 +1 x119 +1 x127 +1 x128 +1 x130 +1 x137 +1 x139 +1 x150 +1 x155
  +1 x166 +1 x171 +1 x175 +1 x196 +1 x197 >= +1
Bounds
 0 <= x0 <= 1
 0 <= x1 <= 1
 0 <= x2 <= 1
 0 <= x3 <= 1
 0 <= x4 <= 1
 0 <= x5 <= 1
 0 <= x6 <= 1
 0 <= x7 <= 1
 0 <= x8 <= 1
 0 <= x9 <= 1
 0 <= x10 <= 1
 0 <= x11 <= 1
 0 <= x12 <= 1
 0 <= x13 <= 1
 0 <= x14 <= 1
 0 <= x15 <= 1
 0 <= x16 <= 1
 0 <= x17 <= 1
 0 <= x18 <= 1
 0 <= x19 <= 1
 0 <= x20 <= 1
 0 <= x21 <= 1
 0 <= x22 <= 1
 0 <= x23 <= 1
 0 <= x24 <= 1
 0 <= x25 <= 1
 0 <= x26 <= 1
 0 <= x27 <= 1
 0 <= x28 <= 1
 0 <= x29 <= 1
 0 <= x30 <= 1
 0 <= x31 <= 1
 0 <= x32 <= 1
 0 <= x33 <= 1
 0 <= x34 <= 1
 0 <= x35 <= 1
 0 <= x36 <= 1
 0 <= x37 <= 1
 0 <= x38 <= 1
 0 <= x39 <= 1
 0 <= x40 <= 1
 0 <= x41 <= 1
 0 <= x42 <= 1
 0 <= x43 <= 1
 0 <= x44 <= 1
 0 <= x45 <= 1
 0 <= x46 <= 1
 0 <= x47 <= 1
 0 <= x48 <= 1
 0 <= x49 <= 1
 0 <= x50 <= 1
 0 <= x51 <= 1
 0 <= x52 <= 1
 0 <= x53 <= 1
 0 <= x54 <= 1
 0 <= x55 <= 1
 0 <= x56 <= 1
 0 <= x57 <= 1
 0 <= x58 <= 1
 0 <= x59 <= 1
 0 <= x60 <= 1
 0 <= x61 <= 1
 0 <= x62 <= 1
 0 <= x63 <= 1
 0 <= x64 <= 1
 0 <= x65 <= 1
 0 <= x66 <= 1
 0 <= x67 <= 1
 0 <= x68 <= 1
 0 <= x69 <= 1
 0 <= x70 <= 1
 0 <= x71 <= 1
 0 <= x72 <= 1
 0 <= x73 <= 1
 0 <= x74 <= 1
 0 <= x75 <= 1
 0 <= x76 <= 1
 0 <= x77 <= 1
 0 <= x78 <= 1
 0 <= x79 <= 1
 0 <= x80 <= 1
 0 <= x81 <= 1
 0 <= x82 <= 1
 0 <= x83 <= 1
 0 <= x84 <= 1
 0 <= x85 <= 1
 0 <= x86 <= 1
 0 <= x87 <= 1
 0 <= x88 <= 1
 0 <= x89 <= 1
 0 <= x90 <= 1
 0 <= x91 <= 1
 0 <= x92 <= 1
 0 <= x93 <= 1
 0 <= x94 <= 1
 0 <= x95 <= 1
 0 <= x96 <= 1
 0 <= x97 <= 1
 0 <= x98 <= 1
 0 <= x99 <= 1
 0 <= x100 <= 1
 0 <= x101 <= 1
 0 <= x102 <= 1
 0 <= x103 <= 1
 0 <= x104 <= 1
 0 <= x105 <= 1
 0 <= x106 <= 1
 0 <= x107 <= 1
 0 <= x108 <= 1
 0 <= x109 <= 1
 0 <= x110 <= 1
 0 <= x111 <= 1
 0 <= x112 <= 1
 0 <= x113 <= 1
 0 <= x114 <= 1
 0 <= x115 <= 1
 0 <= x116 <= 1
 0 <= x117 <= 1
 0 <= x118 <= 1
 0 <= x119 <= 1
 0 <= x120 <= 1
 0 <= x121 <= 1
 0 <= x122 <= 1
 0 <= x123 <= 1
 0 <= x124 <= 1
 0 <= x125 <= 1
 0 <= x126 <= 1
 0 <= x127 <= 1
 0 <= x128 <= 1
 0 <= x129 <= 1
 0 <= x130 <= 1
 0 <= x131 <= 1
 0 <= x132 <= 1
 0 <= x133 <= 1
 0 <= x134 <= 1
 0 <= x135 <= 1
 0 <= x136 <= 1
 0 <= x137 <= 1
 0 <= x138 <= 1
 0 <= x139 <= 1
 0 <= x140 <= 1
 0 <= x141 <= 1
 0 <= x142 <= 1
 0 <= x143 <= 1
 0 <= x144 <= 1
 0 <= x145 <= 1
 0 <= x146 <= 1
 0 <= x147 <= 1
 0 <= x148 <= 1
 0 <= x149 <= 1
 0 <= x150 <= 1
 0 <= x151 <= 1
 0 <= x152 <= 1
 0 <= x153 <= 1
 0 <= x154 <= 1
 0 <= x155 <= 1
 0 <= x156 <= 1
 0 <= x157 <= 1
 0 <= x158 <= 1
 0 <= x159 <= 1
 0 <= x160 <= 1
 0 <= x161 <= 1
 0 <= x162 <= 1
 0 <= x163 <= 1
 0 <= x164 <= 1
 0 <= x165 <= 1
 0 <= x166 <= 1
 0 <= x167 <= 1
 0 <= x168 <= 1
 0 <= x169 <= 1
 0 <= x170 <= 1
 0 <= x171 <= 1
 0 <= x172 <= 1
 0 <= x173 <= 1
 0 <= x174 <= 1
 0 <= x175 <= 1
 0 <= x176 <= 1
 0 <= x177 <= 1
 0 <= x178 <= 1
 0 <= x179 <= 1
 0 <= x180 <= 1
 0 <= x181 <= 1
 0 <= x182 <= 1
 0 <= x183 <= 1
 0 <= x184 <= 1
 0 <= x185 <= 1
 0 <= x186 <= 1
 0 <= x187 <= 1
 0 <= x188 <= 1
 0 <= x189 <= 1
 0 <= x190 <= 1
 0 <= x191 <= 1
 0 <= x192 <= 1
 0 <= x193 <= 1
 0 <= x194 <= 1
 0 <= x195 <= 1
 0 <= x196 <= 1
 0 <= x197 <= 1
 0 <= x198 <= 1
 0 <= x199 <= 1
Binaries
 x0 x1 x2 x3 x4 x5 x6 x7 x8 x9 x10 x11 x12 x13 x14 x15 x16 x17 x18 x19 x20 x21 x22 x23 x24 x25 x26 x27
 x28 x29 x30 x31 x32 x33 x34 x35 x36 x37 x38 x39 x40 x41 x42 x43 x44 x45 x46 x47 x48 x49 x50 x51 x52 x53
 x54 x55 x56 x57 x58 x59 x60 x61 x62 x63 x64 x65 x66 x67 x68 x69 x70 x71 x72 x73 x74 x75 x76 x77 x78 x79
 x80 x81 x82 x83 x84 x85 x86 x87 x88 x89 x90 x91 x92 x93 x94 x95 x96 x97 x98 x99 x100 x101 x102 x103 x104
 x105 x106 x107 x108 x109 x110 x111 x112 x113 x114 x115 x116 x117 x118 x119 x120 x121 x122 x123 x124 x125
 x126 x127 x128 x129 x130 x131 x132 x133 x134 x135 x136 x137 x138 x139 x140 x141 x142 x143 x144 x145 x146
 x147 x148 x149 x150 x151 x152 x153 x154 x155 x156 x157 x158 x159 x160 x161 x162 x163 x164 x165 x166 x167
 x168 x169 x170 x171 x172 x173 x174 x175 x176 x177 x178 x179 x180 x181 x182 x183 x184 x185 x186 x187 x188
 x189 x190 x191 x192 x193 x194 x195 x196 x197 x198 x199
End
